Traveling Salesman Problem/TSP_generados/Aleatorio1621103409_13.tsp
NAME: Aleatorio1621103409_13.tsp
COMMENT: Randomly generated scenario
TYPE: TSP
DIMENSION: 13
EDGE_WEIGHT_TYPE: ATT
NODE_COORD_SECTION
1 44.11 32.83
2 48.94 3.02
3 48.5 32.69
4 29.69 18.62
5 0.18 23.66
6 28.25 33.43
7 23.33 23.53
8 37.52 6.0
9 36.93 1.02
10 43.6 30.49
11 10.68 45.61
12 45.66 1.39
13 39.85 15.78
