Traveling Salesman Problem/TSP_generados/Aleatorio1621103409_13.opt.tour
NAME: Aleatorio1621103409_13.opt.tour
COMMENT: Optimal solution for Aleatorio1621103409_13 (165.64521005330948)
TYPE: TOUR
DIMENSION: 13
TOUR_SECTION
1 3 10 13 2 12 9 8 4 7 5 11 6
-1
EOF
